
  12    4
  10   10   10   10

   0   0   0   0   0   4 2 5 6 7 
   4  10  10  10  10   2 4 3 
   7  10  10  10  10   3 11 9 8 
   3  10  10  10  10   2 9 8 
   8  10  10  10  10   2 9 8 
   4  10  10  10  10   1 8 
   2  10  10  10  10   1 8 
   1  10  10  10  10   1 10 
   5  10  10  10  10   1 10 
   6  10  10  10  10   1 12
   3  10  10  10  10   1 12
   0   0   0   0   0   0 
